50
26155

390 786
885 779
478 303
701 575
978 98
147 831
844 441
100 541
908 594
447 856
550 332
199 212
607 361
990 267
322 669
878 324
48 416
400 143
805 628
954 584
367 448
561 519
899 730
874 772
893 709
113 903
271 285
930 837
837 891
136 540
549 200
992 464
731 14
325 174
874 500
371 228
738 587
650 286
494 501
145 508
561 131
194 5
952 365
375 597
842 111
449 964
795 146
955 207
79 232
188 675
